c FILE: du8_graf.col.col
c
c SOURCE: https://www.youtube.com/watch?v=GVvN0ikNekw
c
c DESCRIPTION: Weighted graph with 8 vertices and 10 edges
c              Vertices are labeled A-H but converted to numbers 1-8
c              for DIMACS format compatibility
c              A=1, B=2, C=3, D=4, E=5, F=6, G=7, H=8
c
p edge 8 10
e 1 4 35
e 1 3 25
e 1 2 32
e 4 6 17
e 3 6 17
e 3 5 19
e 2 5 19
e 6 7 0
e 5 8 10
e 8 7 0